
Gurobi 7.0.2 (linux64, Matlab) logging started Sun Sep  2 08:55:17 2018


Gurobi 7.0.2 (linux64) logging started Sun Sep  2 08:55:17 2018

Optimize a model with 661094 rows, 348958 columns and 2754430 nonzeros
Coefficient statistics:
  Matrix range     [7e-01, 3e+04]
  Objective range  [3e-02, 5e+05]
  Bounds range     [1e+00, 1e+07]
  RHS range        [1e+06, 1e+07]
Iteration    Objective       Primal Inf.    Dual Inf.      Time
       0   -1.8983783e+09   0.000000e+00   0.000000e+00      0s

Solved in 0 iterations and 0.35 seconds
Optimal objective -1.898378322e+09
Warning: unscaled dual violation = 1.78737e-05 and residual = 1.78737e-05
